p cnf 640 726
c ind 279 280 0
c ind 281 282 283 284 285 286 287 288 289 290 0
c ind 291 292 293 294 295 296 297 298 299 300 0
c ind 301 302 303 304 305 306 307 308 309 310 0
c ind 311 312 313 314 315 316 317 318 319 320 0
c ind 321 322 323 324 325 326 327 328 329 330 0
c ind 331 332 333 334 335 336 337 338 339 340 0
c ind 341 342 343 344 345 346 347 348 349 350 0
c ind 351 352 353 354 355 356 357 358 359 360 0
c ind 361 362 363 364 365 366 367 368 369 370 0
c ind 371 372 373 374 375 376 377 378 379 380 0
c ind 381 382 383 384 385 386 387 388 389 390 0
c ind 391 392 393 394 395 396 397 398 399 400 0
c ind 401 402 403 404 405 406 407 408 409 410 0
c ind 411 412 413 414 415 416 417 418 419 420 0
c ind 421 422 423 424 425 426 427 428 429 430 0
c ind 431 432 433 434 435 436 437 438 439 440 0
c ind 441 442 443 444 445 446 447 448 449 450 0
c ind 451 452 453 454 455 456 457 458 459 460 0
c ind 461 462 463 464 465 466 467 468 469 470 0
c ind 471 472 473 474 475 476 477 478 479 480 0
c ind 481 482 483 484 485 486 487 488 489 490 0
c ind 491 492 493 494 495 496 497 498 499 500 0
c ind 501 502 503 504 505 506 507 508 509 510 0
c ind 511 512 513 514 515 516 517 518 519 520 0
c ind 521 522 523 524 525 526 527 528 529 530 0
c ind 531 532 533 534 535 536 537 538 539 540 0
c ind 541 542 543 544 545 546 547 548 549 550 0
c ind 551 552 553 554 555 556 557 558 559 560 0
c ind 561 562 563 564 565 566 567 568 569 570 0
c ind 571 572 573 574 575 576 577 578 579 580 0
c ind 581 582 583 584 585 586 587 588 589 590 0
c ind 591 592 593 594 595 596 597 598 599 600 0
c ind 601 602 603 604 605 606 607 608 609 610 0
c ind 611 612 613 614 615 616 617 618 619 620 0
c ind 621 622 623 624 625 626 627 628 629 630 0
c ind 631 632 633 634 635 636 637 638 639 640 0
31 0
-99 0
-1 -279 12 0
1 -279 -12 0
-1 -280 21 0
1 -280 -21 0
-1 -281 32 0
1 -281 -32 0
-1 -282 37 0
1 -282 -37 0
-1 -283 40 0
1 -283 -40 0
-1 -284 41 0
1 -284 -41 0
-1 -285 109 0
1 -285 -109 0
-1 -286 117 0
1 -286 -117 0
-1 -287 119 0
1 -287 -119 0
-1 -288 210 0
1 -288 -210 0
-1 -289 215 0
1 -289 -215 0
-2 -290 36 0
2 -290 -36 0
-2 -291 38 0
2 -291 -38 0
-2 -292 98 0
2 -292 -98 0
-2 -293 122 0
2 -293 -122 0
-2 -294 250 0
2 -294 -250 0
-2 -295 252 0
2 -295 -252 0
-2 -296 257 0
2 -296 -257 0
-3 -297 8 0
3 -297 -8 0
-3 -298 10 0
3 -298 -10 0
-3 -299 13 0
3 -299 -13 0
-3 -300 15 0
3 -300 -15 0
-3 -301 30 0
3 -301 -30 0
-3 -302 238 0
3 -302 -238 0
-4 -303 64 0
4 -303 -64 0
-4 -304 113 0
4 -304 -113 0
-5 -305 10 0
5 -305 -10 0
-5 -306 56 0
5 -306 -56 0
-5 -307 111 0
5 -307 -111 0
-5 -308 113 0
5 -308 -113 0
-5 -309 118 0
5 -309 -118 0
-5 -310 123 0
5 -310 -123 0
-5 -311 124 0
5 -311 -124 0
-5 -312 202 0
5 -312 -202 0
-5 -313 232 0
5 -313 -232 0
-6 -314 21 0
6 -314 -21 0
-6 -315 33 0
6 -315 -33 0
-6 -316 44 0
6 -316 -44 0
-6 -317 45 0
6 -317 -45 0
-6 -318 46 0
6 -318 -46 0
-6 -319 97 0
6 -319 -97 0
-6 -320 113 0
6 -320 -113 0
-6 -321 123 0
6 -321 -123 0
-6 -322 187 0
6 -322 -187 0
-6 -323 195 0
6 -323 -195 0
-6 -324 196 0
6 -324 -196 0
-6 -325 206 0
6 -325 -206 0
-6 -326 208 0
6 -326 -208 0
-6 -327 209 0
6 -327 -209 0
-7 -328 73 0
7 -328 -73 0
-7 -329 84 0
7 -329 -84 0
-8 -330 12 0
8 -330 -12 0
-8 -331 13 0
8 -331 -13 0
-8 -332 30 0
8 -332 -30 0
-8 -333 32 0
8 -333 -32 0
-8 -334 36 0
8 -334 -36 0
-8 -335 37 0
8 -335 -37 0
-8 -336 41 0
8 -336 -41 0
-8 -337 62 0
8 -337 -62 0
-8 -338 110 0
8 -338 -110 0
-8 -339 215 0
8 -339 -215 0
-8 -340 222 0
8 -340 -222 0
-8 -341 252 0
8 -341 -252 0
-8 -342 254 0
8 -342 -254 0
-8 -343 255 0
8 -343 -255 0
-8 -344 256 0
8 -344 -256 0
-8 -345 258 0
8 -345 -258 0
-9 -346 12 0
9 -346 -12 0
-9 -347 88 0
9 -347 -88 0
-9 -348 91 0
9 -348 -91 0
-10 -349 31 0
10 -349 -31 0
-10 -350 49 0
10 -350 -49 0
-10 -351 54 0
10 -351 -54 0
-10 -352 100 0
10 -352 -100 0
-10 -353 118 0
10 -353 -118 0
-11 -354 18 0
11 -354 -18 0
-11 -355 20 0
11 -355 -20 0
-11 -356 21 0
11 -356 -21 0
-11 -357 99 0
11 -357 -99 0
-11 -358 121 0
11 -358 -121 0
-11 -359 210 0
11 -359 -210 0
-12 -360 70 0
12 -360 -70 0
-12 -361 88 0
12 -361 -88 0
-12 -362 89 0
12 -362 -89 0
-13 -363 19 0
13 -363 -19 0
-13 -364 21 0
13 -364 -21 0
-14 -365 55 0
14 -365 -55 0
-14 -366 106 0
14 -366 -106 0
-14 -367 113 0
14 -367 -113 0
-14 -368 114 0
14 -368 -114 0
-15 -369 50 0
15 -369 -50 0
-15 -370 235 0
15 -370 -235 0
-15 -371 272 0
15 -371 -272 0
-15 -372 275 0
15 -372 -275 0
-15 -373 276 0
15 -373 -276 0
-16 -374 78 0
16 -374 -78 0
-16 -375 91 0
16 -375 -91 0
-17 -376 21 0
17 -376 -21 0
-18 -377 21 0
18 -377 -21 0
-19 -378 21 0
19 -378 -21 0
-20 -379 93 0
20 -379 -93 0
-22 -380 26 0
22 -380 -26 0
-22 -381 103 0
22 -381 -103 0
-22 -382 110 0
22 -382 -110 0
-22 -383 199 0
22 -383 -199 0
-23 -384 31 0
23 -384 -31 0
-23 -385 42 0
23 -385 -42 0
-24 -386 61 0
24 -386 -61 0
-24 -387 101 0
24 -387 -101 0
-24 -388 103 0
24 -388 -103 0
-24 -389 131 0
24 -389 -131 0
-24 -390 132 0
24 -390 -132 0
-24 -391 205 0
24 -391 -205 0
-25 -392 103 0
25 -392 -103 0
-25 -393 107 0
25 -393 -107 0
-25 -394 272 0
25 -394 -272 0
-26 -395 98 0
26 -395 -98 0
-26 -396 200 0
26 -396 -200 0
-27 -397 29 0
27 -397 -29 0
-27 -398 58 0
27 -398 -58 0
-27 -399 205 0
27 -399 -205 0
-28 -400 58 0
28 -400 -58 0
-28 -401 61 0
28 -401 -61 0
-28 -402 99 0
28 -402 -99 0
-28 -403 193 0
28 -403 -193 0
-28 -404 205 0
28 -404 -205 0
-29 -405 61 0
29 -405 -61 0
-29 -406 119 0
29 -406 -119 0
-29 -407 192 0
29 -407 -192 0
-29 -408 204 0
29 -408 -204 0
-30 -409 151 0
30 -409 -151 0
-30 -410 155 0
30 -410 -155 0
-30 -411 157 0
30 -411 -157 0
-31 -412 35 0
31 -412 -35 0
-31 -413 57 0
31 -413 -57 0
-31 -414 60 0
31 -414 -60 0
-31 -415 100 0
31 -415 -100 0
-31 -416 108 0
31 -416 -108 0
-31 -417 154 0
31 -417 -154 0
-31 -418 159 0
31 -418 -159 0
-31 -419 227 0
31 -419 -227 0
-32 -420 216 0
32 -420 -216 0
-32 -421 218 0
32 -421 -218 0
-32 -422 220 0
32 -422 -220 0
-33 -423 34 0
33 -423 -34 0
-33 -424 176 0
33 -424 -176 0
-33 -425 191 0
33 -425 -191 0
-34 -426 99 0
34 -426 -99 0
-34 -427 169 0
34 -427 -169 0
-34 -428 178 0
34 -428 -178 0
-34 -429 181 0
34 -429 -181 0
-34 -430 269 0
34 -430 -269 0
-35 -431 120 0
35 -431 -120 0
-35 -432 150 0
35 -432 -150 0
-35 -433 228 0
35 -433 -228 0
-36 -434 223 0
36 -434 -223 0
-36 -435 224 0
36 -435 -224 0
-37 -436 105 0
37 -436 -105 0
-38 -437 252 0
38 -437 -252 0
-39 -438 121 0
39 -438 -121 0
-39 -439 210 0
39 -439 -210 0
-40 -440 121 0
40 -440 -121 0
-40 -441 197 0
40 -441 -197 0
-40 -442 198 0
40 -442 -198 0
-40 -443 211 0
40 -443 -211 0
-42 -444 43 0
42 -444 -43 0
-42 -445 108 0
42 -445 -108 0
-43 -446 50 0
43 -446 -50 0
-43 -447 56 0
43 -447 -56 0
-43 -448 57 0
43 -448 -57 0
-43 -449 232 0
43 -449 -232 0
-44 -450 45 0
44 -450 -45 0
-44 -451 46 0
44 -451 -46 0
-44 -452 153 0
44 -452 -153 0
-44 -453 179 0
44 -453 -179 0
-45 -454 53 0
45 -454 -53 0
-45 -455 54 0
45 -455 -54 0
-45 -456 166 0
45 -456 -166 0
-46 -457 47 0
46 -457 -47 0
-46 -458 55 0
46 -458 -55 0
-46 -459 115 0
46 -459 -115 0
-46 -460 146 0
46 -460 -146 0
-46 -461 149 0
46 -461 -149 0
-46 -462 265 0
46 -462 -265 0
-46 -463 266 0
46 -463 -266 0
-46 -464 267 0
46 -464 -267 0
-46 -465 268 0
46 -465 -268 0
-47 -466 48 0
47 -466 -48 0
-48 -467 49 0
48 -467 -49 0
-48 -468 114 0
48 -468 -114 0
-50 -469 51 0
50 -469 -51 0
-52 -470 53 0
52 -470 -53 0
-52 -471 231 0
52 -471 -231 0
-52 -472 233 0
52 -472 -233 0
-53 -473 101 0
53 -473 -101 0
-53 -474 272 0
53 -474 -272 0
-54 -475 115 0
54 -475 -115 0
-54 -476 161 0
54 -476 -161 0
-55 -477 185 0
55 -477 -185 0
-55 -478 270 0
55 -478 -270 0
-55 -479 271 0
55 -479 -271 0
-56 -480 160 0
56 -480 -160 0
-56 -481 273 0
56 -481 -273 0
-56 -482 274 0
56 -482 -274 0
-58 -483 105 0
58 -483 -105 0
-59 -484 60 0
59 -484 -60 0
-59 -485 98 0
59 -485 -98 0
-61 -486 109 0
61 -486 -109 0
-62 -487 96 0
62 -487 -96 0
-62 -488 112 0
62 -488 -112 0
-63 -489 64 0
63 -489 -64 0
-63 -490 83 0
63 -490 -83 0
-65 -491 69 0
65 -491 -69 0
-65 -492 95 0
65 -492 -95 0
-66 -493 75 0
66 -493 -75 0
-66 -494 95 0
66 -494 -95 0
-67 -495 95 0
67 -495 -95 0
-68 -496 111 0
68 -496 -111 0
-70 -497 71 0
70 -497 -71 0
-71 -498 75 0
71 -498 -75 0
-72 -499 90 0
72 -499 -90 0
-73 -500 82 0
73 -500 -82 0
-73 -501 92 0
73 -501 -92 0
-74 -502 91 0
74 -502 -91 0
-75 -503 76 0
75 -503 -76 0
-76 -504 260 0
76 -504 -260 0
-77 -505 79 0
77 -505 -79 0
-78 -506 79 0
78 -506 -79 0
-80 -507 81 0
80 -507 -81 0
-80 -508 94 0
80 -508 -94 0
-81 -509 92 0
81 -509 -92 0
-82 -510 91 0
82 -510 -91 0
-84 -511 85 0
84 -511 -85 0
-85 -512 86 0
85 -512 -86 0
-86 -513 87 0
86 -513 -87 0
-89 -514 90 0
89 -514 -90 0
-97 -515 180 0
97 -515 -180 0
-97 -516 186 0
97 -516 -186 0
-99 -517 101 0
99 -517 -101 0
-99 -518 167 0
99 -518 -167 0
-99 -519 168 0
99 -519 -168 0
-99 -520 174 0
99 -520 -174 0
-99 -521 175 0
99 -521 -175 0
-99 -522 192 0
99 -522 -192 0
-99 -523 193 0
99 -523 -193 0
-101 -524 162 0
101 -524 -162 0
-101 -525 164 0
101 -525 -164 0
-101 -526 165 0
101 -526 -165 0
-101 -527 193 0
101 -527 -193 0
-102 -528 106 0
102 -528 -106 0
-102 -529 202 0
102 -529 -202 0
-104 -530 142 0
104 -530 -142 0
-104 -531 221 0
104 -531 -221 0
-104 -532 250 0
104 -532 -250 0
-105 -533 110 0
105 -533 -110 0
-107 -534 125 0
107 -534 -125 0
-107 -535 143 0
107 -535 -143 0
-107 -536 244 0
107 -536 -244 0
-107 -537 245 0
107 -537 -245 0
-109 -538 172 0
109 -538 -172 0
-109 -539 204 0
109 -539 -204 0
-109 -540 212 0
109 -540 -212 0
-109 -541 213 0
109 -541 -213 0
-109 -542 214 0
109 -542 -214 0
-112 -543 117 0
112 -543 -117 0
-112 -544 120 0
112 -544 -120 0
-116 -545 120 0
116 -545 -120 0
-116 -546 225 0
116 -546 -225 0
-116 -547 226 0
116 -547 -226 0
-116 -548 230 0
116 -548 -230 0
-116 -549 260 0
116 -549 -260 0
-126 -550 232 0
126 -550 -232 0
-127 -551 128 0
127 -551 -128 0
-127 -552 129 0
127 -552 -129 0
-127 -553 130 0
127 -553 -130 0
-127 -554 154 0
127 -554 -154 0
-133 -555 134 0
133 -555 -134 0
-133 -556 136 0
133 -556 -136 0
-133 -557 137 0
133 -557 -137 0
-134 -558 135 0
134 -558 -135 0
-134 -559 152 0
134 -559 -152 0
-137 -560 138 0
137 -560 -138 0
-137 -561 139 0
137 -561 -139 0
-139 -562 140 0
139 -562 -140 0
-139 -563 142 0
139 -563 -142 0
-139 -564 216 0
139 -564 -216 0
-140 -565 141 0
140 -565 -141 0
-140 -566 277 0
140 -566 -277 0
-141 -567 244 0
141 -567 -244 0
-141 -568 249 0
141 -568 -249 0
-143 -569 144 0
143 -569 -144 0
-143 -570 245 0
143 -570 -245 0
-145 -571 146 0
145 -571 -146 0
-146 -572 147 0
146 -572 -147 0
-146 -573 148 0
146 -573 -148 0
-154 -574 155 0
154 -574 -155 0
-156 -575 157 0
156 -575 -157 0
-158 -576 229 0
158 -576 -229 0
-162 -577 163 0
162 -577 -163 0
-162 -578 179 0
162 -578 -179 0
-170 -579 171 0
170 -579 -171 0
-170 -580 174 0
170 -580 -174 0
-170 -581 194 0
170 -581 -194 0
-172 -582 173 0
172 -582 -173 0
-172 -583 212 0
172 -583 -212 0
-174 -584 175 0
174 -584 -175 0
-175 -585 184 0
175 -585 -184 0
-176 -586 177 0
176 -586 -177 0
-176 -587 180 0
176 -587 -180 0
-178 -588 179 0
178 -588 -179 0
-178 -589 187 0
178 -589 -187 0
-180 -590 182 0
180 -590 -182 0
-181 -591 182 0
181 -591 -182 0
-181 -592 269 0
181 -592 -269 0
-182 -593 183 0
182 -593 -183 0
-182 -594 184 0
182 -594 -184 0
-184 -595 269 0
184 -595 -269 0
-186 -596 187 0
186 -596 -187 0
-186 -597 188 0
186 -597 -188 0
-188 -598 189 0
188 -598 -189 0
-188 -599 206 0
188 -599 -206 0
-189 -600 190 0
189 -600 -190 0
-189 -601 207 0
189 -601 -207 0
-192 -602 194 0
192 -602 -194 0
-194 -603 204 0
194 -603 -204 0
-201 -604 221 0
201 -604 -221 0
-202 -605 203 0
202 -605 -203 0
-212 -606 213 0
212 -606 -213 0
-215 -607 218 0
215 -607 -218 0
-216 -608 217 0
216 -608 -217 0
-218 -609 219 0
218 -609 -219 0
-221 -610 254 0
221 -610 -254 0
-229 -611 243 0
229 -611 -243 0
-229 -612 257 0
229 -612 -257 0
-233 -613 234 0
233 -613 -234 0
-233 -614 238 0
233 -614 -238 0
-235 -615 236 0
235 -615 -236 0
-236 -616 237 0
236 -616 -237 0
-236 -617 242 0
236 -617 -242 0
-238 -618 239 0
238 -618 -239 0
-239 -619 240 0
239 -619 -240 0
-239 -620 242 0
239 -620 -242 0
-241 -621 242 0
241 -621 -242 0
-243 -622 244 0
243 -622 -244 0
-243 -623 248 0
243 -623 -248 0
-245 -624 246 0
245 -624 -246 0
-246 -625 247 0
246 -625 -247 0
-246 -626 248 0
246 -626 -248 0
-248 -627 249 0
248 -627 -249 0
-248 -628 277 0
248 -628 -277 0
-249 -629 277 0
249 -629 -277 0
-250 -630 251 0
250 -630 -251 0
-253 -631 277 0
253 -631 -277 0
-254 -632 255 0
254 -632 -255 0
-255 -633 256 0
255 -633 -256 0
-257 -634 258 0
257 -634 -258 0
-258 -635 259 0
258 -635 -259 0
-260 -636 261 0
260 -636 -261 0
-260 -637 262 0
260 -637 -262 0
-260 -638 263 0
260 -638 -263 0
-260 -639 264 0
260 -639 -264 0
-277 -640 278 0
277 -640 -278 0
